p tw 30 123
e 0 1
e 0 3
e 0 5
e 0 6
e 0 8
e 0 13
e 0 15
e 0 16
e 0 17
e 0 18
e 0 22
e 0 23
e 0 25
e 1 7
e 1 8
e 1 11
e 1 16
e 1 19
e 1 21
e 1 27
e 1 28
e 2 4
e 2 8
e 2 9
e 2 10
e 2 12
e 2 17
e 2 19
e 2 22
e 2 25
e 2 28
e 3 4
e 3 9
e 3 10
e 3 11
e 3 12
e 3 19
e 3 20
e 3 21
e 3 27
e 3 29
e 4 6
e 4 11
e 4 14
e 4 18
e 4 19
e 4 22
e 4 29
e 5 6
e 5 8
e 5 12
e 5 15
e 5 20
e 5 21
e 5 25
e 6 8
e 6 9
e 6 19
e 6 21
e 6 26
e 7 17
e 7 18
e 7 20
e 7 22
e 7 24
e 7 25
e 7 28
e 8 14
e 8 27
e 9 10
e 9 15
e 9 20
e 10 11
e 10 15
e 10 18
e 10 19
e 10 23
e 10 24
e 10 25
e 10 26
e 10 28
e 10 29
e 11 24
e 11 27
e 11 29
e 13 14
e 13 20
e 13 21
e 13 26
e 13 28
e 14 19
e 14 21
e 14 22
e 14 24
e 14 29
e 15 17
e 15 25
e 15 26
e 16 20
e 16 21
e 16 25
e 16 26
e 17 24
e 17 26
e 19 21
e 19 22
e 19 24
e 19 27
e 19 29
e 20 22
e 20 23
e 20 24
e 20 26
e 21 25
e 22 24
e 22 26
e 23 28
e 23 29
e 25 27
e 25 29
e 26 27
e 26 28
e 27 29
